5 5
0 17 2 79 1 85 3 38 4 30
1 19 2 32 4 93 3 86 0 20
4 64 2 36 3 65 1 83 0 43
3 26 2 7 1 34 0 36 4 6
1 37 4 62 2 86 3 73 0 60
-1
0 1 2 4 5
0 2 3 4 5
0 1 2 4 5
0 4 5
0 1 2 5
-2
18 104 282 320
56 221 250 264
91 100 253 463
148 133
51 155 375

436 9
0 18 14 24 9
20 5 2 17 13
1 16 11 6 22
15 12 3 23 8
10 21 7 19 4
